Traveling Salesman Problem/TSP_generados/Aleatorio1620390971_11.tsp
NAME: Aleatorio1620390971_11.tsp
COMMENT: Randomly generated scenario
TYPE: TSP
DIMENSION: 11
EDGE_WEIGHT_TYPE: ATT
NODE_COORD_SECTION
1 28.17 45.42
2 15.37 7.48
3 5.44 12.97
4 23.25 6.8
5 37.9 33.84
6 6.52 5.61
7 5.25 12.03
8 11.1 32.6
9 20.32 48.37
10 6.92 16.04
11 8.19 1.31
