Traveling Salesman Problem/TSP_generados/Aleatorio1620390971_11.opt.tour
NAME: Aleatorio1620390971_11.opt.tour
COMMENT: Optimal solution for Aleatorio1620390971_11 (122.51220712575352)
TYPE: TOUR
DIMENSION: 11
TOUR_SECTION
1 9 8 10 3 7 6 11 2 4 5
-1
EOF
